instances/p2/p2_6_20-2.dzn
Alphabet = {A,C,G,T};
ns = 6;
nc = 13;
neighbours = [| I(C),I(C),I(A),I(T),I(T),I(A),I(G),I(G),I(G),I(A),I(G),I(A),I(G) | I(C),I(C),I(A),I(C),I(A),Null,Null,Null,Null,Null,Null,Null,Null | I(T),I(T),I(C),I(C),I(A),I(T),I(T),I(A),I(A),I(C),Null,Null,Null | I(C),I(A),I(A),I(A),Null,Null,Null,Null,Null,Null,Null,Null,Null | I(T),I(C),I(T),I(A),I(G),I(C),I(C),I(A),I(C),I(A),I(G),Null,Null | I(C),I(G),Null,Null,Null,Null,Null,Null,Null,Null,Null,Null,Null |];
