instances/p2/p2_6_20-2.txt
{
	"num_strings": 6,
	"alphabet": "ACGT",
	"strings": [
		"CCATTAGGGAGAG",
		"CCACA",
		"TTCCATTAAC",
		"CAAA",
		"TCTAGCCACAG",
		"CG"
	],
	"str_length":[13,5,10,4,11,2]
}